NAME: RC208
COMMENT: converted from Solomon txt
TYPE: VRPTW
VEHICLES: 25
DIMENSION: 101
CAPACITY: 1000
EDGE_WEIGHT_TYPE: EUC_2D
NODE_COORD_SECTION
1	40.0	50.0
2	25.0	85.0
3	22.0	75.0
4	22.0	85.0
5	20.0	80.0
6	20.0	85.0
7	18.0	75.0
8	15.0	75.0
9	15.0	80.0
10	10.0	35.0
11	10.0	40.0
12	8.0	40.0
13	8.0	45.0
14	5.0	35.0
15	5.0	45.0
16	2.0	40.0
17	0.0	40.0
18	0.0	45.0
19	44.0	5.0
20	42.0	10.0
21	42.0	15.0
22	40.0	5.0
23	40.0	15.0
24	38.0	5.0
25	38.0	15.0
26	35.0	5.0
27	95.0	30.0
28	95.0	35.0
29	92.0	30.0
30	90.0	35.0
31	88.0	30.0
32	88.0	35.0
33	87.0	30.0
34	85.0	25.0
35	85.0	35.0
36	67.0	85.0
37	65.0	85.0
38	65.0	82.0
39	62.0	80.0
40	60.0	80.0
41	60.0	85.0
42	58.0	75.0
43	55.0	80.0
44	55.0	85.0
45	55.0	82.0
46	20.0	82.0
47	18.0	80.0
48	2.0	45.0
49	42.0	5.0
50	42.0	12.0
51	72.0	35.0
52	55.0	20.0
53	25.0	30.0
54	20.0	50.0
55	55.0	60.0
56	30.0	60.0
57	50.0	35.0
58	30.0	25.0
59	15.0	10.0
60	10.0	20.0
61	15.0	60.0
62	45.0	65.0
63	65.0	35.0
64	65.0	20.0
65	45.0	30.0
66	35.0	40.0
67	41.0	37.0
68	64.0	42.0
69	40.0	60.0
70	31.0	52.0
71	35.0	69.0
72	65.0	55.0
73	63.0	65.0
74	2.0	60.0
75	20.0	20.0
76	5.0	5.0
77	60.0	12.0
78	23.0	3.0
79	8.0	56.0
80	6.0	68.0
81	47.0	47.0
82	49.0	58.0
83	27.0	43.0
84	37.0	31.0
85	57.0	29.0
86	63.0	23.0
87	21.0	24.0
88	12.0	24.0
89	24.0	58.0
90	67.0	5.0
91	37.0	47.0
92	49.0	42.0
93	53.0	43.0
94	61.0	52.0
95	57.0	48.0
96	56.0	37.0
97	55.0	54.0
98	4.0	18.0
99	26.0	52.0
100	26.0	35.0
101	31.0	67.0
DEMAND_SECTION
1	0
2	20
3	30
4	10
5	40
6	20
7	20
8	20
9	10
10	20
11	30
12	40
13	20
14	10
15	10
16	20
17	20
18	20
19	20
20	40
21	10
22	10
23	40
24	30
25	10
26	20
27	30
28	20
29	10
30	10
31	10
32	20
33	10
34	10
35	30
36	20
37	40
38	10
39	30
40	10
41	30
42	20
43	10
44	20
45	10
46	10
47	10
48	10
49	10
50	10
51	30
52	19
53	3
54	5
55	16
56	16
57	19
58	23
59	20
60	19
61	17
62	9
63	3
64	6
65	17
66	16
67	16
68	9
69	21
70	27
71	23
72	14
73	8
74	5
75	8
76	16
77	31
78	7
79	27
80	30
81	13
82	10
83	9
84	14
85	18
86	2
87	28
88	13
89	19
90	25
91	6
92	13
93	14
94	3
95	23
96	6
97	26
98	35
99	9
100	15
101	3
DEPOT_SECTION
1
TIME_WINDOW_SECTION
1	0.0	960.0
2	388.0	911.0
3	30.0	546.0
4	353.0	708.0
5	425.0	913.0
6	40.0	630.0
7	228.0	667.0
8	161.0	558.0
9	229.0	624.0
10	213.0	648.0
11	404.0	753.0
12	33.0	511.0
13	46.0	519.0
14	395.0	911.0
15	35.0	697.0
16	39.0	528.0
17	94.0	535.0
18	394.0	909.0
19	218.0	571.0
20	85.0	542.0
21	391.0	802.0
22	45.0	517.0
23	229.0	640.0
24	45.0	523.0
25	389.0	914.0
26	386.0	904.0
27	389.0	788.0
28	57.0	600.0
29	55.0	575.0
30	52.0	536.0
31	90.0	521.0
32	50.0	534.0
33	425.0	898.0
34	51.0	602.0
35	342.0	751.0
36	410.0	905.0
37	43.0	617.0
38	410.0	823.0
39	114.0	561.0
40	36.0	658.0
41	191.0	586.0
42	201.0	670.0
43	33.0	568.0
44	429.0	838.0
45	49.0	504.0
46	37.0	597.0
47	315.0	782.0
48	38.0	606.0
49	396.0	904.0
50	341.0	658.0
51	351.0	782.0
52	161.0	610.0
53	25.0	516.0
54	239.0	630.0
55	448.0	873.0
56	420.0	897.0
57	390.0	843.0
58	227.0	686.0
59	401.0	902.0
60	42.0	706.0
61	401.0	923.0
62	110.0	525.0
63	29.0	548.0
64	39.0	593.0
65	20.0	498.0
66	11.0	530.0
67	404.0	847.0
68	100.0	555.0
69	436.0	907.0
70	9.0	510.0
71	330.0	930.0
72	81.0	520.0
73	27.0	622.0
74	135.0	556.0
75	430.0	913.0
76	63.0	520.0
77	125.0	530.0
78	390.0	900.0
79	190.0	659.0
80	215.0	608.0
81	444.0	942.0
82	249.0	580.0
83	14.0	506.0
84	19.0	566.0
85	259.0	650.0
86	198.0	609.0
87	212.0	605.0
88	272.0	565.0
89	90.0	549.0
90	325.0	897.0
91	204.0	633.0
92	442.0	937.0
93	14.0	581.0
94	373.0	928.0
95	265.0	638.0
96	20.0	539.0
97	418.0	825.0
98	426.0	787.0
99	14.0	499.0
100	149.0	586.0
101	356.0	930.0
SERVICE_TIME_SECTION
1	0.0
2	10.0
3	10.0
4	10.0
5	10.0
6	10.0
7	10.0
8	10.0
9	10.0
10	10.0
11	10.0
12	10.0
13	10.0
14	10.0
15	10.0
16	10.0
17	10.0
18	10.0
19	10.0
20	10.0
21	10.0
22	10.0
23	10.0
24	10.0
25	10.0
26	10.0
27	10.0
28	10.0
29	10.0
30	10.0
31	10.0
32	10.0
33	10.0
34	10.0
35	10.0
36	10.0
37	10.0
38	10.0
39	10.0
40	10.0
41	10.0
42	10.0
43	10.0
44	10.0
45	10.0
46	10.0
47	10.0
48	10.0
49	10.0
50	10.0
51	10.0
52	10.0
53	10.0
54	10.0
55	10.0
56	10.0
57	10.0
58	10.0
59	10.0
60	10.0
61	10.0
62	10.0
63	10.0
64	10.0
65	10.0
66	10.0
67	10.0
68	10.0
69	10.0
70	10.0
71	10.0
72	10.0
73	10.0
74	10.0
75	10.0
76	10.0
77	10.0
78	10.0
79	10.0
80	10.0
81	10.0
82	10.0
83	10.0
84	10.0
85	10.0
86	10.0
87	10.0
88	10.0
89	10.0
90	10.0
91	10.0
92	10.0
93	10.0
94	10.0
95	10.0
96	10.0
97	10.0
98	10.0
99	10.0
100	10.0
101	10.0
EOF
